c ! encoding i-pc 250
p cnf 788 1656
-251 0
170 -252 0
131 -253 0
251 -254 0
251 -255 0
251 -256 0
251 -257 0
258 0
259 -260 0
260 -261 0
119 -261 0
144 -262 0
-119 -262 0
261 262 -263 0
161 -264 0
59 -264 0
265 -266 0
266 -267 0
-59 -267 0
264 267 -268 0
263 -269 0
268 -269 0
269 -271 0
270 -271 0
271 -272 0
96 -272 0
-59 -273 0
73 -273 0
-119 -273 0
144 -273 0
273 -274 0
265 -274 0
274 -275 0
-96 -275 0
272 275 -276 0
107 -277 0
180 -277 0
278 -279 0
279 -280 0
-180 -280 0
277 280 -281 0
8 -282 0
29 -282 0
114 -282 0
281 -283 0
282 -283 0
283 -284 0
133 -284 0
29 -285 0
8 -285 0
286 -287 0
287 -288 0
-8 -288 0
285 288 -289 0
289 -290 0
114 -290 0
-8 -291 0
286 -291 0
291 -292 0
-114 -292 0
290 292 -293 0
293 -294 0
-180 -294 0
278 -294 0
294 -295 0
-133 -295 0
284 295 -296 0
276 -297 0
296 -297 0
-132 -297 0
297 -298 0
246 -298 0
107 -299 0
133 -299 0
299 -300 0
180 -300 0
278 -302 0
301 -302 0
302 -303 0
-180 -303 0
300 303 -304 0
29 -305 0
114 -305 0
-132 -305 0
304 -306 0
305 -306 0
306 -307 0
8 -307 0
-133 -308 0
-180 -308 0
308 -309 0
278 -309 0
309 -312 0
286 -312 0
310 -312 0
311 -312 0
312 -313 0
-8 -313 0
307 313 -314 0
-59 -315 0
73 -315 0
-96 -315 0
-119 -315 0
144 -315 0
314 -316 0
315 -316 0
265 -316 0
316 -317 0
-246 -317 0
298 317 -318 0
319 -321 0
320 -321 0
321 -322 0
97 -322 0
-191 -323 0
-239 -323 0
323 -324 0
-97 -324 0
322 324 -325 0
325 -326 0
89 -326 0
-97 -327 0
-191 -327 0
-239 -327 0
327 -328 0
-89 -328 0
326 328 -329 0
-142 -330 0
-244 -330 0
330 -332 0
331 -332 0
332 -333 0
241 -333 0
334 -335 0
335 -336 0
142 -336 0
-244 -337 0
-142 -337 0
336 337 -338 0
338 -339 0
207 -339 0
-244 -341 0
340 -341 0
341 -342 0
-207 -342 0
339 342 -343 0
343 -344 0
-241 -344 0
333 344 -345 0
52 -346 0
347 -348 0
348 -349 0
-52 -349 0
346 349 -350 0
350 -351 0
228 -351 0
352 -353 0
353 -354 0
-228 -354 0
351 354 -355 0
356 -358 0
357 -358 0
358 -359 0
74 -359 0
356 -360 0
360 -361 0
201 -361 0
-5 -362 0
-201 -362 0
361 362 -363 0
363 -364 0
-74 -364 0
359 364 -365 0
-25 -366 0
42 -366 0
48 -366 0
81 -366 0
-99 -366 0
106 -366 0
163 -366 0
-190 -366 0
210 -366 0
-233 -366 0
367 -374 0
368 -374 0
369 -374 0
370 -374 0
371 -374 0
372 -374 0
373 -374 0
318 -375 0
329 -375 0
345 -375 0
355 -375 0
365 -375 0
374 -375 0
251 -377 0
-104 -382 0
189 -386 0
213 -386 0
251 -391 0
251 -396 0
251 -400 0
82 -402 0
-141 -402 0
251 -407 0
251 -410 0
72 -413 0
251 -414 0
251 -415 0
251 -416 0
251 -417 0
251 -418 0
251 -419 0
251 -420 0
251 -421 0
142 -422 0
207 -422 0
-241 -422 0
263 -423 0
422 -423 0
423 -424 0
244 -424 0
207 -425 0
259 -425 0
425 -426 0
119 -426 0
144 -427 0
331 -427 0
427 -428 0
-119 -428 0
426 428 -429 0
-142 -430 0
241 -430 0
340 -431 0
431 -432 0
-241 -432 0
430 432 -433 0
429 -434 0
433 -434 0
434 -435 0
-244 -435 0
424 435 -436 0
437 -438 0
369 -438 0
438 -439 0
213 -439 0
-48 -440 0
248 -440 0
440 -441 0
-213 -441 0
439 441 -442 0
442 -443 0
365 -443 0
443 -445 0
444 -445 0
445 -446 0
106 -446 0
369 -447 0
447 -448 0
213 -448 0
248 -449 0
-213 -449 0
448 449 -450 0
-48 -451 0
74 -451 0
-82 -451 0
356 -452 0
357 -452 0
450 -453 0
451 -453 0
452 -453 0
453 -454 0
-106 -454 0
446 454 -455 0
301 -456 0
456 -457 0
8 -457 0
-133 -458 0
-8 -458 0
457 458 -459 0
52 -460 0
459 -462 0
460 -462 0
461 -462 0
462 -463 0
114 -463 0
-8 -464 0
-133 -464 0
355 -465 0
464 -465 0
465 -466 0
-114 -466 0
463 466 -467 0
455 -468 0
467 -468 0
-132 -468 0
468 -469 0
246 -469 0
464 -470 0
132 -470 0
459 -471 0
-132 -471 0
470 471 -472 0
472 -473 0
460 -473 0
461 -473 0
473 -474 0
114 -474 0
355 -475 0
464 -475 0
311 -475 0
475 -476 0
-114 -476 0
474 476 -477 0
-48 -478 0
74 -478 0
-82 -478 0
-106 -478 0
356 -479 0
357 -479 0
477 -480 0
450 -480 0
478 -480 0
479 -480 0
480 -481 0
-246 -481 0
469 481 -482 0
42 -483 0
-73 -483 0
96 -483 0
-99 -483 0
104 -483 0
-107 -483 0
141 -483 0
-150 -483 0
-163 -483 0
-180 -483 0
-189 -483 0
190 -483 0
210 -483 0
-249 -483 0
436 -484 0
482 -484 0
329 -484 0
268 -484 0
483 -484 0
286 -484 0
484 -485 0
25 -485 0
486 -487 0
487 -488 0
48 -488 0
141 -489 0
-48 -489 0
488 489 -490 0
490 -491 0
365 -491 0
491 -492 0
444 -492 0
492 -493 0
106 -493 0
-48 -494 0
74 -494 0
-82 -494 0
141 -494 0
356 -495 0
357 -495 0
494 -496 0
495 -496 0
496 -497 0
-106 -497 0
493 497 -498 0
304 -499 0
29 -499 0
499 -500 0
8 -500 0
308 -501 0
278 -501 0
501 -502 0
286 -502 0
502 -503 0
-8 -503 0
500 503 -504 0
498 -505 0
504 -505 0
-132 -505 0
505 -506 0
246 -506 0
8 -507 0
29 -507 0
-132 -507 0
281 -508 0
507 -508 0
508 -509 0
133 -509 0
-8 -510 0
286 -510 0
510 -511 0
132 -511 0
289 -512 0
-132 -512 0
511 512 -513 0
513 -514 0
-180 -514 0
278 -514 0
514 -515 0
-133 -515 0
509 515 -516 0
-48 -517 0
74 -517 0
-82 -517 0
-106 -517 0
141 -517 0
356 -518 0
357 -518 0
516 -519 0
517 -519 0
518 -519 0
519 -520 0
-246 -520 0
506 520 -521 0
521 -522 0
263 -522 0
268 -522 0
522 -523 0
270 -523 0
523 -524 0
96 -524 0
29 -525 0
-132 -525 0
304 -527 0
525 -527 0
526 -527 0
527 -528 0
8 -528 0
-246 -529 0
132 -529 0
526 -530 0
530 -531 0
-132 -531 0
529 531 -532 0
532 -533 0
308 -533 0
278 -533 0
533 -534 0
286 -534 0
534 -535 0
-8 -535 0
528 535 -536 0
498 -537 0
536 -537 0
273 -537 0
265 -537 0
537 -538 0
-96 -538 0
524 538 -539 0
42 -540 0
-99 -540 0
539 -541 0
329 -541 0
540 -541 0
541 -542 0
210 -542 0
-8 -543 0
74 -543 0
-82 -543 0
-106 -543 0
-133 -543 0
-180 -543 0
-246 -543 0
286 -544 0
356 -544 0
357 -544 0
278 -544 0
543 -545 0
544 -545 0
545 -546 0
132 -546 0
365 -547 0
246 -547 0
547 -548 0
444 -548 0
548 -549 0
106 -549 0
74 -550 0
-82 -550 0
356 -551 0
357 -551 0
550 -552 0
551 -552 0
552 -553 0
526 -553 0
553 -554 0
-106 -554 0
549 554 -555 0
555 -556 0
504 -556 0
556 -557 0
-132 -557 0
546 557 -558 0
558 -559 0
263 -559 0
268 -559 0
559 -560 0
270 -560 0
560 -561 0
96 -561 0
365 -562 0
444 -562 0
562 -563 0
106 -563 0
356 -564 0
357 -564 0
550 -565 0
564 -565 0
565 -566 0
-106 -566 0
563 566 -567 0
567 -568 0
536 -568 0
273 -568 0
265 -568 0
568 -569 0
-96 -569 0
561 569 -570 0
571 -572 0
572 -573 0
99 -573 0
42 -574 0
-99 -574 0
573 574 -575 0
89 -576 0
575 -577 0
576 -577 0
577 -578 0
319 -578 0
320 -578 0
578 -579 0
97 -579 0
571 -580 0
580 -581 0
130 -581 0
-42 -582 0
-130 -582 0
581 582 -583 0
583 -584 0
99 -584 0
42 -585 0
585 -586 0
-99 -586 0
584 586 -587 0
587 -588 0
323 -588 0
588 -590 0
589 -590 0
590 -591 0
-97 -591 0
579 591 -592 0
-48 -593 0
141 -593 0
570 -594 0
592 -594 0
593 -594 0
594 -595 0
-210 -595 0
542 595 -596 0
596 -597 0
114 -597 0
-132 -598 0
246 -598 0
490 -599 0
365 -599 0
598 -599 0
599 -600 0
444 -600 0
600 -601 0
106 -601 0
356 -602 0
357 -602 0
532 -603 0
494 -603 0
602 -603 0
603 -604 0
-106 -604 0
601 604 -605 0
605 -606 0
263 -606 0
268 -606 0
606 -607 0
270 -607 0
607 -608 0
96 -608 0
498 -609 0
532 -609 0
273 -609 0
265 -609 0
609 -610 0
-96 -610 0
608 610 -611 0
611 -612 0
329 -612 0
540 -612 0
612 -613 0
210 -613 0
365 -614 0
598 -614 0
614 -615 0
444 -615 0
615 -616 0
106 -616 0
356 -617 0
357 -617 0
532 -618 0
550 -618 0
617 -618 0
618 -619 0
-106 -619 0
616 619 -620 0
620 -621 0
263 -621 0
268 -621 0
621 -622 0
270 -622 0
622 -623 0
96 -623 0
567 -624 0
532 -624 0
273 -624 0
265 -624 0
624 -625 0
-96 -625 0
623 625 -626 0
626 -627 0
592 -627 0
593 -627 0
627 -628 0
-210 -628 0
613 628 -629 0
-8 -630 0
-133 -630 0
-180 -630 0
286 -631 0
278 -631 0
629 -632 0
630 -632 0
631 -632 0
632 -633 0
-114 -633 0
597 633 -634 0
-104 -635 0
163 -635 0
189 -635 0
-190 -635 0
213 -635 0
368 -636 0
369 -636 0
634 -637 0
355 -637 0
345 -637 0
635 -637 0
636 -637 0
637 -638 0
373 -638 0
638 -639 0
-25 -639 0
485 639 -640 0
81 -641 0
-233 -641 0
640 -642 0
641 -642 0
642 -643 0
196 -643 0
459 -644 0
81 -644 0
8 -645 0
301 -645 0
645 -646 0
-81 -646 0
644 646 -647 0
647 -648 0
365 -648 0
442 -648 0
598 -648 0
648 -649 0
444 -649 0
649 -650 0
106 -650 0
-8 -651 0
-133 -651 0
-246 -651 0
651 -652 0
132 -652 0
459 -653 0
526 -653 0
653 -654 0
-132 -654 0
652 654 -655 0
655 -656 0
81 -656 0
8 -657 0
-132 -657 0
301 -658 0
526 -658 0
657 -659 0
658 -659 0
659 -660 0
-81 -660 0
656 660 -661 0
356 -662 0
357 -662 0
661 -663 0
450 -663 0
451 -663 0
662 -663 0
663 -664 0
-106 -664 0
650 664 -665 0
-142 -666 0
-233 -666 0
-244 -666 0
666 -667 0
241 -667 0
334 -669 0
668 -669 0
669 -670 0
142 -670 0
-233 -671 0
-244 -671 0
671 -672 0
-142 -672 0
670 672 -673 0
673 -674 0
-241 -674 0
667 674 -675 0
665 -677 0
675 -677 0
676 -677 0
677 -678 0
47 -678 0
567 -679 0
647 -679 0
-132 -679 0
679 -680 0
246 -680 0
472 -681 0
81 -681 0
657 -682 0
301 -682 0
682 -683 0
-81 -683 0
681 683 -684 0
74 -685 0
-82 -685 0
-106 -685 0
356 -686 0
357 -686 0
684 -687 0
685 -687 0
686 -687 0
687 -688 0
-246 -688 0
680 688 -689 0
95 -690 0
142 -690 0
187 -690 0
233 -690 0
-241 -690 0
689 -691 0
442 -691 0
690 -691 0
334 -691 0
691 -692 0
-47 -692 0
678 692 -693 0
693 -694 0
460 -694 0
461 -694 0
694 -695 0
114 -695 0
442 -696 0
365 -696 0
598 -696 0
696 -697 0
444 -697 0
697 -698 0
106 -698 0
356 -699 0
357 -699 0
450 -700 0
532 -700 0
451 -700 0
699 -700 0
700 -701 0
-106 -701 0
698 701 -702 0
-8 -703 0
81 -703 0
-133 -703 0
702 -704 0
355 -704 0
675 -704 0
703 -704 0
704 -705 0
-114 -705 0
695 705 -706 0
25 -707 0
42 -707 0
-73 -707 0
96 -707 0
-99 -707 0
104 -707 0
-107 -707 0
119 -707 0
141 -707 0
-144 -707 0
-150 -707 0
-163 -707 0
-180 -707 0
-189 -707 0
190 -707 0
207 -707 0
210 -707 0
-249 -707 0
706 -708 0
329 -708 0
268 -708 0
707 -708 0
286 -708 0
708 -709 0
-196 -709 0
710 -711 0
251 -713 0
372 -716 0
371 -716 0
716 -717 0
251 -719 0
370 -722 0
251 -726 0
367 -731 0
251 -733 0
251 -738 0
251 -750 0
251 -765 0
251 -769 0
251 -776 0
251 -779 0
-72 -781 0
782 -784 0
-131 -785 0
-170 -787 0
1 0
-2 0
-3 0
4 0
-6 0
-7 0
-10 0
-11 0
12 0
-13 0
-14 0
15 0
16 0
17 0
-19 0
-20 0
21 0
22 0
23 0
26 0
27 0
-28 0
-30 0
31 0
-32 0
-33 0
-34 0
-35 0
37 0
40 0
41 0
43 0
44 0
45 0
46 0
-49 0
50 0
53 0
54 0
-55 0
-56 0
-57 0
-58 0
-60 0
-61 0
-62 0
-63 0
64 0
65 0
-66 0
-67 0
-68 0
69 0
70 0
-71 0
-75 0
-76 0
77 0
-78 0
-79 0
-80 0
83 0
84 0
85 0
-86 0
-87 0
-88 0
90 0
91 0
-92 0
94 0
-98 0
100 0
101 0
102 0
103 0
105 0
-108 0
-109 0
110 0
-111 0
112 0
-113 0
-115 0
116 0
117 0
120 0
121 0
-122 0
123 0
-124 0
-125 0
127 0
129 0
-134 0
-136 0
137 0
138 0
-139 0
-140 0
143 0
-146 0
-147 0
-148 0
-151 0
-152 0
153 0
-154 0
-155 0
156 0
-157 0
-158 0
-159 0
160 0
164 0
165 0
-166 0
-167 0
-168 0
169 0
171 0
172 0
173 0
-174 0
175 0
177 0
-178 0
179 0
181 0
182 0
183 0
184 0
-185 0
186 0
-192 0
-193 0
194 0
-195 0
-197 0
-199 0
-200 0
202 0
203 0
204 0
205 0
206 0
208 0
-209 0
211 0
212 0
-214 0
215 0
-216 0
-217 0
-218 0
219 0
221 0
-223 0
224 0
225 0
-226 0
-229 0
-230 0
-232 0
-234 0
235 0
236 0
238 0
240 0
-242 0
243 0
-245 0
-247 0
-786 787 0
-783 784 0
-780 781 0
-775 777 0
-774 775 0
-771 772 0
-768 770 0
-767 768 0
-764 766 0
-761 762 0
-760 761 0
-757 758 0
-756 757 0
-754 755 0
-753 754 0
-752 753 0
-751 753 0
220 750 0
-749 751 0
-747 748 0
-745 746 0
-742 744 0
-741 742 0
-740 741 0
-739 740 0
-736 737 0
-734 736 0
250 733 0
-732 734 0
-729 731 0
-727 728 0
-728 729 0
93 726 0
-724 725 0
-720 722 0
18 719 0
-717 718 0
-755 757 0
-716 717 0
149 713 0
-712 714 0
-711 712 0
-708 709 0
-702 704 0
-700 701 0
-694 695 0
-693 694 0
-690 691 0
-95 690 0
-687 688 0
-686 687 0
-685 687 0
-684 687 0
-683 684 0
-681 684 0
-678 693 0
-675 677 704 0
-673 674 0
-672 673 0
-671 672 0
-669 670 0
-668 669 0
-233 668 690 0
-667 675 0
-663 664 0
-654 655 0
-652 655 0
-651 652 0
-648 649 0
-647 648 679 0
-645 646 0
-644 647 0
-643 710 0
-642 643 0
-641 642 0
-640 642 0
-721 722 0
-634 637 0
-633 634 0
-632 633 0
-630 632 0
-629 632 0
-627 628 0
-626 627 0
-624 625 0
-623 626 0
-622 623 0
-620 621 0
-619 620 0
-617 618 0
-616 620 0
-615 616 0
-614 615 0
-612 613 0
-610 611 0
-608 611 0
-635 637 0
-605 606 0
-636 637 0
-604 605 0
-603 604 0
-600 601 0
-593 594 627 0
-590 591 0
-701 702 0
-589 590 0
-698 702 0
-588 590 0
-586 587 0
-585 586 0
-584 587 0
-583 584 0
-581 583 0
-580 581 0
-578 579 0
-577 578 0
-576 577 0
-575 577 0
-574 575 0
-573 575 0
-572 573 0
42 571 582 0
-570 594 0
-568 569 0
-567 568 624 679 0
-566 567 0
-565 566 0
-564 565 0
-563 567 0
-562 563 0
-561 570 0
-560 561 0
-557 558 0
-556 557 0
-554 555 0
-665 677 0
-553 554 0
-785 786 0
-551 552 0
-549 555 0
-787 788 0
-664 665 0
130 582 0
-548 549 0
-784 785 0
-545 546 0
-541 542 0
-539 541 0
-778 780 0
-538 539 0
-653 654 0
-537 538 0
-536 537 568 0
-535 536 0
-770 772 0
-715 717 0
-533 534 0
-532 533 603 609 618 624 700 0
-531 532 0
-530 531 0
-528 536 0
-526 527 530 553 653 658 0
-523 524 0
-521 522 0
-520 521 0
-735 736 0
-518 519 0
-516 519 0
-515 516 0
-514 515 0
-513 514 0
-512 513 0
-511 513 0
-730 731 0
-510 511 0
-508 509 0
-748 749 0
-507 508 0
-613 629 0
-505 506 0
-504 505 556 0
-503 504 0
-99 573 584 0
-502 503 0
-501 502 0
-500 504 0
-499 500 0
-497 498 0
-496 497 0
-494 496 603 0
-491 492 0
-488 490 0
-607 608 0
-487 488 0
-379 380 0
-655 656 0
-710 711 0
213 441 449 0
-527 528 0
-509 516 0
-319 321 578 0
-106 366 446 493 549 563 601 616 650 698 0
-731 732 0
-305 306 0
-431 432 0
-621 622 0
-191 320 0
-477 480 0
-689 691 0
161 265 0
-424 436 0
-625 626 0
-161 264 265 0
-457 459 0
-773 774 0
-342 343 0
-473 474 0
-81 366 641 644 656 681 703 0
-455 468 0
-766 767 0
-259 260 425 0
-762 763 0
-522 523 0
-744 745 0
-312 313 0
-368 374 636 0
-331 332 427 0
-445 446 0
-699 700 0
-582 583 0
74 364 0
201 357 362 0
-29 282 285 286 305 499 507 525 0
-5 356 0
-666 667 0
-432 433 0
-682 683 0
-355 375 465 475 637 704 0
-354 355 0
228 354 461 0
-353 354 0
-677 678 0
-351 355 0
-628 629 0
231 370 0
-350 351 0
-349 350 0
52 349 352 0
-348 349 0
-529 532 0
-670 673 0
-345 375 637 0
-498 505 537 609 0
-227 255 415 0
-344 345 0
-680 689 0
-364 365 0
241 344 422 432 674 690 0
-461 462 473 694 0
-343 344 0
-346 350 0
191 320 323 327 0
-187 690 0
-339 343 0
-338 339 0
-660 661 0
24 371 0
-336 338 0
8 288 291 313 458 464 503 510 535 543 630 651 703 0
-659 660 0
-334 335 669 691 0
-340 341 431 0
-244 334 424 0
-525 527 0
-241 333 430 667 0
30 366 711 0
-657 659 682 0
-332 333 0
-133 284 299 301 509 0
-114 282 290 305 310 463 474 597 695 0
-598 599 614 648 696 0
-398 399 0
-281 283 508 0
-395 397 0
-490 491 599 0
-296 297 0
25 366 639 0
-427 428 0
-341 342 0
-492 493 0
-777 778 0
180 280 294 303 308 483 514 543 630 707 0
-555 556 0
-542 596 0
-278 279 294 302 309 501 514 533 544 631 0
47 692 0
-506 521 0
107 278 483 707 0
-313 314 0
-386 387 0
-263 269 423 522 559 606 621 0
-107 277 278 299 0
-352 353 0
59 267 273 315 0
-579 592 0
-272 276 0
-462 463 0
-544 545 0
-8 282 285 307 457 500 507 528 645 657 0
-387 388 0
207 331 342 0
-328 329 0
-591 592 0
-275 276 0
246 317 481 520 526 529 543 651 688 0
96 275 315 538 569 610 625 0
-189 386 635 0
-543 545 0
-422 423 0
-270 271 523 560 607 622 0
-403 404 0
-285 289 0
-558 559 0
-135 254 414 0
-274 275 0
-74 359 451 478 494 517 543 550 685 0
-688 689 0
-358 359 0
-718 720 0
-599 600 0
-287 288 0
-401 403 0
239 319 323 327 0
-228 351 461 0
132 297 305 311 468 471 505 507 512 525 531 557 598 654 657 679 0
-433 434 0
-361 363 0
-260 261 0
-450 453 480 663 700 0
-357 358 452 479 495 518 544 551 564 602 617 662 686 699 0
-96 272 483 524 561 608 623 707 0
188 396 0
-423 424 0
-356 358 360 452 479 495 518 544 551 564 602 617 662 686 699 0
-222 257 419 0
-180 277 300 0
133 295 301 308 458 464 515 543 630 651 703 0
-330 332 0
-267 268 0
-569 570 0
-198 256 416 0
-661 663 0
-337 338 0
-646 647 0
-246 298 469 506 526 547 598 680 0
-639 640 0
-360 361 0
-722 723 0
-406 408 0
-290 293 0
-618 619 0
-73 270 273 315 0
-594 595 0
-282 283 0
-466 467 0
-650 665 0
-552 553 0
-743 744 0
-534 535 0
-399 401 0
-283 284 0
-596 597 0
-277 281 0
-144 259 262 273 315 427 0
-359 365 0
-405 406 0
-291 292 0
-258 260 266 279 287 302 321 335 348 358 360 431 438 447 456 487 530 572 580 669 0
-326 329 0
-264 268 0
-119 261 426 707 0
-261 263 0
-449 450 0
-363 364 0
-373 374 638 0
-262 263 0
-324 325 0
119 262 273 315 428 0
-142 336 340 422 670 690 0
196 709 0
-447 448 0
5 356 362 0
-266 267 0
-59 264 0
-385 387 0
-595 596 0
-392 394 0
-279 280 0
-695 706 0
-468 469 0
-389 390 0
-265 266 274 316 537 568 609 624 0
-306 307 0
-519 520 0
-48 366 437 488 0
-347 348 0
-631 632 0
-280 281 0
-397 398 0
-269 271 0
114 292 310 466 476 633 705 0
-697 698 0
-587 588 0
-207 331 339 422 425 707 0
-132 311 470 511 529 546 652 0
-725 727 0
-294 295 0
-451 453 663 700 0
-295 296 0
-297 298 0
-298 318 0
-97 322 579 0
189 483 707 0
-201 357 361 0
-452 453 0
-299 300 0
-9 347 0
-310 312 0
-674 675 0
-439 442 0
-333 345 0
-493 498 0
-300 304 0
-301 302 456 645 658 682 0
-302 303 0
-704 705 0
-329 375 484 541 612 708 0
-303 304 0
-309 312 0
-307 314 0
-308 309 501 533 0
-163 366 635 0
-662 663 0
-656 661 0
-335 336 0
-714 717 0
-480 481 0
-658 659 0
-483 484 0
-322 325 0
99 366 483 540 574 586 707 0
-311 312 475 0
-571 572 580 0
-42 366 483 540 571 574 585 707 0
-453 454 0
162 407 776 0
48 437 440 451 478 489 494 517 593 0
-268 269 484 522 559 606 621 708 0
-315 316 0
-314 316 0
-597 634 0
-316 317 0
-737 739 0
97 324 327 591 0
-190 483 707 0
-271 272 0
-592 594 627 0
-276 297 0
118 391 765 0
-288 289 0
-286 287 291 312 484 502 510 534 544 631 708 0
-317 318 0
-318 375 0
-758 759 0
-325 326 0
-239 319 0
-284 296 0
-601 605 0
-481 482 0
-320 321 578 0
-485 640 0
-321 322 0
197 386 760 0
-609 610 0
-486 487 0
-292 293 0
-289 290 512 0
-404 405 0
-323 324 588 0
-723 724 0
-89 326 576 589 0
-327 328 0
142 330 337 340 430 666 672 0
-458 459 0
89 328 589 0
-611 612 0
244 330 334 337 341 435 666 671 0
-696 697 0
-459 462 471 644 653 0
-467 468 0
-489 490 0
-411 412 0
-676 677 0
-381 383 0
-394 395 0
82 444 451 478 494 517 543 550 685 0
-649 650 0
-550 552 565 618 0
-546 558 0
190 366 635 0
-210 366 483 542 613 707 0
-469 482 0
-126 372 0
-429 434 0
126 372 0
-495 496 0
-409 411 0
-637 638 0
-707 708 0
242 366 752 0
-366 375 0
-39 367 0
67 783 0
39 367 0
-249 368 0
249 368 483 707 0
-248 369 440 449 0
248 369 0
-362 363 0
-369 374 438 447 636 0
-517 519 0
-231 370 0
-150 373 0
150 373 483 707 0
29 286 0
-374 375 0
-679 680 0
-376 378 0
66 366 735 0
38 377 738 0
-484 485 0
73 270 483 707 0
-378 379 0
-524 539 0
-380 381 0
104 382 635 0
-440 441 0
-638 639 0
174 382 743 0
-82 402 444 0
-772 773 0
106 454 478 497 517 543 554 566 604 619 664 685 701 0
-183 382 756 0
-471 472 0
-365 375 443 491 547 562 599 614 648 696 0
-446 455 0
-382 383 0
-464 465 470 475 0
-383 384 0
-384 385 0
-442 443 648 691 696 0
-602 603 0
-465 466 0
-547 548 0
-476 477 0
-304 306 499 527 0
-692 693 0
-203 386 747 0
-213 386 439 448 635 0
-273 274 537 568 609 624 0
-463 467 0
214 386 730 0
-479 480 0
-606 607 0
-540 541 612 0
128 400 769 0
-388 389 0
-705 706 0
210 595 628 0
-390 392 0
-706 708 0
-759 761 0
-393 394 0
9 346 347 353 460 0
-448 450 0
141 402 486 0
-402 403 0
-24 371 0
-425 426 0
-293 294 0
-408 409 0
237 410 779 0
-412 413 0
-36 417 0
-145 418 0
-763 764 0
-51 420 0
-176 421 0
-430 433 0
-426 429 0
-428 429 0
-434 435 0
-435 436 0
-436 484 0
-559 560 0
192 402 771 0
-437 438 0
-438 439 0
136 393 771 0
-441 442 0
-443 445 0
-444 445 492 548 562 600 615 649 697 0
-691 692 0
-375 376 0
-454 455 0
-703 704 0
-456 457 0
-460 462 473 694 0
81 646 660 683 0
-470 472 0
-143 366 715 0
-472 473 681 0
-83 366 721 0
-474 477 0
144 259 707 0
-475 476 0
-478 480 0
-482 484 0
-104 483 707 0
-746 748 0
163 483 707 0
-25 485 707 0
